Traveling Salesman Problem/TSP_generados/Aleatorio1620390865_6.tsp
NAME: Aleatorio1620390865_6.tsp
COMMENT: Randomly generated scenario
TYPE: TSP
DIMENSION: 6
EDGE_WEIGHT_TYPE: ATT
NODE_COORD_SECTION
1 8.45 16.25
2 20.63 21.52
3 5.86 26.39
4 15.76 3.88
5 12.3 13.82
6 16.71 4.95
